solution status: optimal solution found
objective value:                     175699.576714014
d11(0,0)                                            1 	(obj:0)
d11(1,1)                                            1 	(obj:0)
d11(2,3)                                            1 	(obj:0)
d11(2,5)                                            1 	(obj:0)
d11(2,6)                                            1 	(obj:0)
d11(3,7)                                            1 	(obj:0)
d11(3,9)                                            1 	(obj:0)
d11(3,11)                                           1 	(obj:0)
d11(3,13)                                           1 	(obj:0)
d11(4,17)                                           1 	(obj:0)
d11(4,19)                                           1 	(obj:0)
d11(4,21)                                           1 	(obj:0)
d11(4,23)                                           1 	(obj:0)
d11(4,25)                                           1 	(obj:0)
d11(4,29)                                           1 	(obj:0)
d11(5,31)                           0.999999999999985 	(obj:0)
d11(5,35)                           0.999999999999985 	(obj:0)
d11(5,39)                           0.999999999999985 	(obj:0)
d11(5,45)                           0.999999999999985 	(obj:0)
d11(5,47)                           0.999999999999985 	(obj:0)
d11(5,49)                           0.999999999999985 	(obj:0)
d11(5,51)                                           1 	(obj:0)
d11(5,53)                           0.999999999999985 	(obj:0)
d11(5,55)                           0.999999999999985 	(obj:0)
d11(5,57)                           0.999999999999985 	(obj:0)
d11(5,59)                           0.999999999999985 	(obj:0)
d11(5,61)                           0.999999999999985 	(obj:0)
d12(3,8)                                            1 	(obj:0)
d12(3,10)                                           1 	(obj:0)
d12(3,12)                                           1 	(obj:0)
d12(3,14)                                           1 	(obj:0)
d12(4,16)                                           1 	(obj:0)
d12(4,18)                                           1 	(obj:0)
d12(4,20)                                           1 	(obj:0)
d12(4,22)                                           1 	(obj:0)
d12(4,24)                                           1 	(obj:0)
d12(4,26)                                           1 	(obj:0)
d12(4,28)                                           1 	(obj:0)
d12(4,30)                                           1 	(obj:0)
d12(5,32)                                           1 	(obj:0)
d12(5,34)                                           1 	(obj:0)
d12(5,36)                                           1 	(obj:0)
d12(5,38)                                           1 	(obj:0)
d12(5,40)                                           1 	(obj:0)
d12(5,42)                                           1 	(obj:0)
d12(5,44)                                           1 	(obj:0)
d12(5,46)                                           1 	(obj:0)
d12(5,48)                                           1 	(obj:0)
d12(5,50)                                           1 	(obj:0)
d12(5,52)                                           1 	(obj:0)
d12(5,54)                                           1 	(obj:0)
d12(5,56)                                           1 	(obj:0)
d12(5,58)                                           1 	(obj:0)
d12(5,60)                                           1 	(obj:0)
d12(5,62)                                           1 	(obj:0)
d21(2,3)                                            1 	(obj:0)
d21(3,7)                                            1 	(obj:0)
d21(3,8)                                            1 	(obj:0)
d21(3,9)                                            1 	(obj:0)
d21(3,11)                                           1 	(obj:0)
d21(4,15)                                           1 	(obj:0)
d21(4,16)                                           1 	(obj:0)
d21(4,17)                                           1 	(obj:0)
d21(4,18)                                           1 	(obj:0)
d21(4,19)                                           1 	(obj:0)
d21(4,23)                                           1 	(obj:0)
d21(5,31)                                           1 	(obj:0)
d21(5,32)                                           1 	(obj:0)
d21(5,33)                                           1 	(obj:0)
d21(5,34)                                           1 	(obj:0)
d21(5,35)                                           1 	(obj:0)
d21(5,36)                                           1 	(obj:0)
d21(5,37)                                           1 	(obj:0)
d21(5,39)                                           1 	(obj:0)
d21(5,40)                                           1 	(obj:0)
d21(5,41)                                           1 	(obj:0)
d21(5,43)                                           1 	(obj:0)
d21(5,47)                                           1 	(obj:0)
d21(5,48)                                           1 	(obj:0)
d21(5,49)                                           1 	(obj:0)
d21(5,51)                                           1 	(obj:0)
y2(5,40)                             1385.48851144895 	(obj:0)
y2(5,42)                             1385.48851144895 	(obj:0)
y2(5,44)                             1385.48851144895 	(obj:0)
y2(5,46)                             1385.48851144895 	(obj:0)
y2(5,48)                             1385.48851144895 	(obj:0)
y2(5,50)                             1385.48851144895 	(obj:0)
y2(5,52)                             1385.48851144895 	(obj:0)
y2(5,54)                             1385.48851144895 	(obj:0)
y2(5,56)                             1385.48851144895 	(obj:0)
y2(5,58)                             1385.48851144895 	(obj:0)
y2(5,60)                             1385.48851144895 	(obj:0)
y2(5,62)                             1385.48851144895 	(obj:0)
STE(1,1)                             4137.75010111115 	(obj:0)
STE(0,0)                                         6300 	(obj:0)
STE(1,2)                                         5796 	(obj:0)
STE(2,3)                             1975.50020222231 	(obj:0)
STE(2,4)                             3633.75010111115 	(obj:0)
STE(2,5)                             3633.75010111115 	(obj:0)
STE(2,6)                                         5292 	(obj:0)
STE(3,7)                             211.500202222309 	(obj:0)
STE(3,8)                             1666.44285952735 	(obj:0)
STE(3,9)                             1869.75010111115 	(obj:0)
STE(3,10)                            3324.69275841619 	(obj:0)
STE(3,11)                            1869.75010111115 	(obj:0)
STE(3,12)                            3324.69275841619 	(obj:0)
STE(3,13)                                        3528 	(obj:0)
STE(3,14)                            4982.94265730504 	(obj:0)
STE(4,15)                           -292.499797777691 	(obj:0)
STE(4,16)                            1023.71428809885 	(obj:0)
STE(4,17)                            1162.44285952735 	(obj:0)
STE(4,18)                            2478.65694540389 	(obj:0)
STE(4,19)                            1365.75010111115 	(obj:0)
STE(4,20)                            2681.96418698765 	(obj:0)
STE(4,21)                            2820.69275841619 	(obj:0)
STE(4,22)                             4136.9068442927 	(obj:0)
STE(4,23)                            1365.75010111116 	(obj:0)
STE(4,24)                            2681.96418698766 	(obj:0)
STE(4,25)                            2820.69275841619 	(obj:0)
STE(4,26)                             4136.9068442927 	(obj:0)
STE(4,27)                                        3024 	(obj:0)
STE(4,28)                            4340.21408587651 	(obj:0)
STE(4,29)                            4478.94265730504 	(obj:0)
STE(4,30)                            5795.15674318155 	(obj:0)
STE(5,31)                           -796.499797777691 	(obj:0)
STE(5,32)                            519.714288098815 	(obj:0)
STE(5,33)                            519.714288098849 	(obj:0)
STE(5,34)                            1835.92837397536 	(obj:0)
STE(5,35)                            658.442859527348 	(obj:0)
STE(5,36)                            1974.65694540385 	(obj:0)
STE(5,37)                            1974.65694540389 	(obj:0)
STE(5,38)                             3290.8710312804 	(obj:0)
STE(5,39)                            861.750101111148 	(obj:0)
STE(5,40)                            2177.96418698765 	(obj:0)
STE(5,41)                            2177.96418698765 	(obj:0)
STE(5,42)                            3494.17827286416 	(obj:0)
STE(5,43)                            2316.69275841619 	(obj:0)
STE(5,44)                             3632.9068442927 	(obj:0)
STE(5,45)                             3632.9068442927 	(obj:0)
STE(5,46)                            4949.12093016921 	(obj:0)
STE(5,47)                            861.750101111155 	(obj:0)
STE(5,48)                            2177.96418698766 	(obj:0)
STE(5,49)                            2177.96418698766 	(obj:0)
STE(5,50)                            3494.17827286417 	(obj:0)
STE(5,51)                            2316.69275841624 	(obj:0)
STE(5,52)                             3632.9068442927 	(obj:0)
STE(5,53)                             3632.9068442927 	(obj:0)
STE(5,54)                            4949.12093016921 	(obj:0)
STE(5,55)                                        2520 	(obj:0)
STE(5,56)                            3836.21408587651 	(obj:0)
STE(5,57)                            3836.21408587651 	(obj:0)
STE(5,58)                            5152.42817175301 	(obj:0)
STE(5,59)                            3974.94265730504 	(obj:0)
STE(5,60)                            5291.15674318155 	(obj:0)
STE(5,61)                            5291.15674318155 	(obj:0)
STE(5,62)                            6607.37082905805 	(obj:0)
AVE(1)                                   3216.9117036 	(obj:0)
WB(2)                                    3366.1541945 	(obj:0)
AVE(2)                                   3366.1541945 	(obj:0)
AVE(3)                                   3515.3966854 	(obj:0)
WB(4)                                 3515.3940654503 	(obj:0)
AVE(4)                               3515.39406545826 	(obj:0)
WB(5)                                3167.15385943327 	(obj:0)
AVE(5)                               3167.15385943327 	(obj:0)
WG(1)                                    3216.9117036 	(obj:10)
WG(3)                                    3515.3966854 	(obj:10)
WG(4)                            7.95900669633126e-009 	(obj:10)
BG(1)                                979.380795379592 	(obj:10)
BG(2)                                4196.29249897959 	(obj:10)
BG(3)                                315.156110518406 	(obj:10)
BG(4)                                2673.40993876755 	(obj:10)
BG(5)                                2673.40993877551 	(obj:10)
y1(1,1)                              1492.42490899996 	(obj:0)
y1(2,3)                              1492.42490899996 	(obj:0)
y1(2,5)                              1492.42490899996 	(obj:0)
y1(3,7)                                          1134 	(obj:0)
y1(3,9)                              1134.00000000001 	(obj:0)
y1(3,11)                                         1134 	(obj:0)
y1(3,13)                                         1134 	(obj:0)
y2(3,8)                                205.2027971632 	(obj:0)
y2(3,10)                               205.2027971632 	(obj:0)
y2(3,12)                               205.2027971632 	(obj:0)
y2(3,14)                               205.2027971632 	(obj:0)
y2(4,16)                             1385.48851144899 	(obj:0)
y2(4,18)                             1385.48851144899 	(obj:0)
y2(4,20)                             1385.48851144895 	(obj:0)
y2(4,22)                             1385.48851144895 	(obj:0)
y2(4,24)                             1385.48851144895 	(obj:0)
y2(4,26)                             1385.48851144895 	(obj:0)
y2(4,28)                             1385.48851144895 	(obj:0)
y2(4,30)                             1385.48851144895 	(obj:0)
y2(5,32)                             1385.48851144895 	(obj:0)
y2(5,34)                             1385.48851144895 	(obj:0)
y2(5,36)                             1385.48851144895 	(obj:0)
y2(5,38)                             1385.48851144895 	(obj:0)
